
Gurobi 6.5.2 (win64) logging started 07/23/16 03:33:37


Gurobi 6.5.2 (win64) logging started 07/23/16 03:33:37

Optimize a model with 23140 rows, 984 columns and 47152 nonzeros
Coefficient statistics:
  Matrix range    [1e+00, 1e+00]
  Objective range [7e+00, 5e+01]
  Bounds range    [1e+00, 1e+00]
  RHS range       [1e+00, 1e+00]
Found heuristic solution: objective -0
Presolve removed 22965 rows and 133 columns
Presolve time: 0.03s
Presolved: 175 rows, 851 columns, 2852 nonzeros
Variable types: 0 continuous, 851 integer (851 binary)

Root relaxation: objective 7.520000e+02, 313 iterations, 0.00 seconds

    Nodes    |    Current Node    |     Objective Bounds      |     Work
 Expl Unexpl |  Obj  Depth IntInf | Incumbent    BestBd   Gap | It/Node Time

*    0     0               0     752.0000000  752.00000  0.00%     -    0s

Explored 0 nodes (313 simplex iterations) in 0.04 seconds
Thread count was 8 (of 8 available processors)

Optimal solution found (tolerance 1.00e-04)
Best objective 7.520000000000e+02, best bound 7.520000000000e+02, gap 0.0%

Wrote requested result file 'H2\instance27\\Results27.lp'

